p cnf 750 2586
31 98 0
-31 -98 0
153 -127 0
-153 127 0
-127 -32 -152 0
-127 32 0
-128 -32 -152 0
-128 32 0
-129 -32 -152 0
-129 32 0
157 -31 0
-157 31 0
407 -157 0
-407 157 0
152 -157 0
-152 157 0
158 -40 -47 0
-158 40 0
-158 47 0
408 -158 0
-408 158 0
409 -127 -158 139 0
-409 127 0
-409 158 0
-409 -139 0
410 -161 -158 139 127 0
-410 161 0
-410 158 0
-410 -139 0
-410 -127 0
411 -161 -139 -127 -158 0
-411 161 0
-411 139 0
-411 127 0
-411 158 0
412 -128 -158 140 0
-412 128 0
-412 158 0
-412 -140 0
413 -162 -158 140 128 0
-413 162 0
-413 158 0
-413 -140 0
-413 -128 0
414 -162 -140 -128 -158 0
-414 162 0
-414 140 0
-414 128 0
-414 158 0
162 -129 -158 141 0
-162 129 0
-162 158 0
-162 -141 0
159 -158 -160 0
-159 158 0
-159 160 0
415 -159 152 0
-415 159 0
-415 -152 0
416 -139 -127 -158 0
-416 139 0
-416 127 0
-416 158 0
417 -158 139 127 0
-417 158 0
-417 -139 0
-417 -127 0
418 -163 -140 -128 -158 0
-418 163 0
-418 140 0
-418 128 0
-418 158 0
419 -163 -158 140 128 0
-419 163 0
-419 158 0
-419 -140 0
-419 -128 0
165 -127 -158 139 0
-165 127 0
-165 158 0
-165 -139 0
420 -163 -128 -158 140 0
-420 163 0
-420 128 0
-420 158 0
-420 -140 0
421 -165 -140 -158 128 0
-421 165 0
-421 140 0
-421 158 0
-421 -128 0
422 -164 -129 -158 141 0
-422 164 0
-422 129 0
-422 158 0
-422 -141 0
423 -166 -141 -158 129 0
-423 166 0
-423 141 0
-423 158 0
-423 -129 0
-159 167 0
424 -158 -167 0
-424 158 0
-424 167 0
168 -36 -65 0
-168 36 0
-168 65 0
425 -168 0
-425 168 0
426 -127 -168 133 0
-426 127 0
-426 168 0
-426 -133 0
427 -171 -168 133 127 0
-427 171 0
-427 168 0
-427 -133 0
-427 -127 0
428 -171 -133 -127 -168 0
-428 171 0
-428 133 0
-428 127 0
-428 168 0
429 -128 -168 134 0
-429 128 0
-429 168 0
-429 -134 0
430 -172 -168 134 128 0
-430 172 0
-430 168 0
-430 -134 0
-430 -128 0
431 -172 -134 -128 -168 0
-431 172 0
-431 134 0
-431 128 0
-431 168 0
172 -129 -168 135 0
-172 129 0
-172 168 0
-172 -135 0
169 -168 -170 0
-169 168 0
-169 170 0
432 -169 152 0
-432 169 0
-432 -152 0
433 -133 -127 -168 0
-433 133 0
-433 127 0
-433 168 0
434 -168 133 127 0
-434 168 0
-434 -133 0
-434 -127 0
435 -173 -134 -128 -168 0
-435 173 0
-435 134 0
-435 128 0
-435 168 0
436 -173 -168 134 128 0
-436 173 0
-436 168 0
-436 -134 0
-436 -128 0
175 -127 -168 133 0
-175 127 0
-175 168 0
-175 -133 0
437 -173 -128 -168 134 0
-437 173 0
-437 128 0
-437 168 0
-437 -134 0
438 -175 -134 -168 128 0
-438 175 0
-438 134 0
-438 168 0
-438 -128 0
439 -174 -129 -168 135 0
-439 174 0
-439 129 0
-439 168 0
-439 -135 0
440 -176 -135 -168 129 0
-440 176 0
-440 135 0
-440 168 0
-440 -129 0
-169 177 0
441 -168 -177 0
-441 168 0
-441 177 0
-155 156 0
-32 155 152 0
33 99 0
-33 -99 0
180 -130 0
-180 130 0
-130 -34 -179 0
-130 34 0
-131 -34 -179 0
-131 34 0
-132 -34 -179 0
-132 34 0
184 -33 0
-184 33 0
442 -184 0
-442 184 0
179 -184 0
-179 184 0
185 -36 -63 0
-185 36 0
-185 63 0
443 -185 0
-443 185 0
444 -130 -185 133 0
-444 130 0
-444 185 0
-444 -133 0
445 -188 -185 133 130 0
-445 188 0
-445 185 0
-445 -133 0
-445 -130 0
446 -188 -133 -130 -185 0
-446 188 0
-446 133 0
-446 130 0
-446 185 0
447 -131 -185 134 0
-447 131 0
-447 185 0
-447 -134 0
448 -189 -185 134 131 0
-448 189 0
-448 185 0
-448 -134 0
-448 -131 0
449 -189 -134 -131 -185 0
-449 189 0
-449 134 0
-449 131 0
-449 185 0
189 -132 -185 135 0
-189 132 0
-189 185 0
-189 -135 0
186 -185 -187 0
-186 185 0
-186 187 0
182 -186 179 0
-182 186 0
-182 -179 0
450 -133 -130 -185 0
-450 133 0
-450 130 0
-450 185 0
451 -185 133 130 0
-451 185 0
-451 -133 0
-451 -130 0
452 -190 -134 -131 -185 0
-452 190 0
-452 134 0
-452 131 0
-452 185 0
453 -190 -185 134 131 0
-453 190 0
-453 185 0
-453 -134 0
-453 -131 0
192 -130 -185 133 0
-192 130 0
-192 185 0
-192 -133 0
454 -190 -131 -185 134 0
-454 190 0
-454 131 0
-454 185 0
-454 -134 0
455 -192 -134 -185 131 0
-455 192 0
-455 134 0
-455 185 0
-455 -131 0
456 -191 -132 -185 135 0
-456 191 0
-456 132 0
-456 185 0
-456 -135 0
457 -193 -135 -185 132 0
-457 193 0
-457 135 0
-457 185 0
-457 -132 0
-186 194 0
183 -185 -194 0
-183 185 0
-183 194 0
-182 183 0
-34 182 179 0
35 100 0
-35 -100 0
197 -133 0
-197 133 0
-133 -36 -196 0
-133 36 0
-134 -36 -196 0
-134 36 0
-135 -36 -196 0
-135 36 0
201 -35 0
-201 35 0
458 -201 0
-458 201 0
196 -201 0
-196 201 0
202 -44 -52 0
-202 44 0
-202 52 0
459 -202 0
-459 202 0
460 -133 -202 145 0
-460 133 0
-460 202 0
-460 -145 0
461 -205 -202 145 133 0
-461 205 0
-461 202 0
-461 -145 0
-461 -133 0
462 -205 -145 -133 -202 0
-462 205 0
-462 145 0
-462 133 0
-462 202 0
463 -134 -202 146 0
-463 134 0
-463 202 0
-463 -146 0
464 -206 -202 146 134 0
-464 206 0
-464 202 0
-464 -146 0
-464 -134 0
465 -206 -146 -134 -202 0
-465 206 0
-465 146 0
-465 134 0
-465 202 0
206 -135 -202 147 0
-206 135 0
-206 202 0
-206 -147 0
203 -202 -204 0
-203 202 0
-203 204 0
466 -203 196 0
-466 203 0
-466 -196 0
467 -145 -133 -202 0
-467 145 0
-467 133 0
-467 202 0
468 -202 145 133 0
-468 202 0
-468 -145 0
-468 -133 0
469 -207 -146 -134 -202 0
-469 207 0
-469 146 0
-469 134 0
-469 202 0
470 -207 -202 146 134 0
-470 207 0
-470 202 0
-470 -146 0
-470 -134 0
209 -133 -202 145 0
-209 133 0
-209 202 0
-209 -145 0
471 -207 -134 -202 146 0
-471 207 0
-471 134 0
-471 202 0
-471 -146 0
472 -209 -146 -202 134 0
-472 209 0
-472 146 0
-472 202 0
-472 -134 0
473 -208 -135 -202 147 0
-473 208 0
-473 135 0
-473 202 0
-473 -147 0
474 -210 -147 -202 135 0
-474 210 0
-474 147 0
-474 202 0
-474 -135 0
-203 211 0
475 -202 -211 0
-475 202 0
-475 211 0
212 -38 -58 0
-212 38 0
-212 58 0
476 -212 0
-476 212 0
477 -133 -212 136 0
-477 133 0
-477 212 0
-477 -136 0
478 -215 -212 136 133 0
-478 215 0
-478 212 0
-478 -136 0
-478 -133 0
479 -215 -136 -133 -212 0
-479 215 0
-479 136 0
-479 133 0
-479 212 0
480 -134 -212 137 0
-480 134 0
-480 212 0
-480 -137 0
481 -216 -212 137 134 0
-481 216 0
-481 212 0
-481 -137 0
-481 -134 0
482 -216 -137 -134 -212 0
-482 216 0
-482 137 0
-482 134 0
-482 212 0
216 -135 -212 138 0
-216 135 0
-216 212 0
-216 -138 0
213 -212 -214 0
-213 212 0
-213 214 0
483 -213 196 0
-483 213 0
-483 -196 0
484 -136 -133 -212 0
-484 136 0
-484 133 0
-484 212 0
485 -212 136 133 0
-485 212 0
-485 -136 0
-485 -133 0
486 -217 -137 -134 -212 0
-486 217 0
-486 137 0
-486 134 0
-486 212 0
487 -217 -212 137 134 0
-487 217 0
-487 212 0
-487 -137 0
-487 -134 0
219 -133 -212 136 0
-219 133 0
-219 212 0
-219 -136 0
488 -217 -134 -212 137 0
-488 217 0
-488 134 0
-488 212 0
-488 -137 0
489 -219 -137 -212 134 0
-489 219 0
-489 137 0
-489 212 0
-489 -134 0
490 -218 -135 -212 138 0
-490 218 0
-490 135 0
-490 212 0
-490 -138 0
491 -220 -138 -212 135 0
-491 220 0
-491 138 0
-491 212 0
-491 -135 0
-213 221 0
492 -212 -221 0
-492 212 0
-492 221 0
222 -55 -62 0
-222 55 0
-222 62 0
493 -222 0
-493 222 0
494 -133 -222 148 0
-494 133 0
-494 222 0
-494 -148 0
495 -225 -222 148 133 0
-495 225 0
-495 222 0
-495 -148 0
-495 -133 0
496 -225 -148 -133 -222 0
-496 225 0
-496 148 0
-496 133 0
-496 222 0
497 -134 -222 149 0
-497 134 0
-497 222 0
-497 -149 0
498 -226 -222 149 134 0
-498 226 0
-498 222 0
-498 -149 0
-498 -134 0
499 -226 -149 -134 -222 0
-499 226 0
-499 149 0
-499 134 0
-499 222 0
226 -135 -222 150 0
-226 135 0
-226 222 0
-226 -150 0
223 -222 -224 0
-223 222 0
-223 224 0
500 -223 196 0
-500 223 0
-500 -196 0
501 -148 -133 -222 0
-501 148 0
-501 133 0
-501 222 0
502 -222 148 133 0
-502 222 0
-502 -148 0
-502 -133 0
503 -227 -149 -134 -222 0
-503 227 0
-503 149 0
-503 134 0
-503 222 0
504 -227 -222 149 134 0
-504 227 0
-504 222 0
-504 -149 0
-504 -134 0
229 -133 -222 148 0
-229 133 0
-229 222 0
-229 -148 0
505 -227 -134 -222 149 0
-505 227 0
-505 134 0
-505 222 0
-505 -149 0
506 -229 -149 -222 134 0
-506 229 0
-506 149 0
-506 222 0
-506 -134 0
507 -228 -135 -222 150 0
-507 228 0
-507 135 0
-507 222 0
-507 -150 0
508 -230 -150 -222 135 0
-508 230 0
-508 150 0
-508 222 0
-508 -135 0
-223 231 0
509 -222 -231 0
-509 222 0
-509 231 0
232 -34 -64 0
-232 34 0
-232 64 0
510 -232 0
-510 232 0
511 -133 -232 130 0
-511 133 0
-511 232 0
-511 -130 0
512 -235 -232 130 133 0
-512 235 0
-512 232 0
-512 -130 0
-512 -133 0
513 -235 -130 -133 -232 0
-513 235 0
-513 130 0
-513 133 0
-513 232 0
514 -134 -232 131 0
-514 134 0
-514 232 0
-514 -131 0
515 -236 -232 131 134 0
-515 236 0
-515 232 0
-515 -131 0
-515 -134 0
516 -236 -131 -134 -232 0
-516 236 0
-516 131 0
-516 134 0
-516 232 0
236 -135 -232 132 0
-236 135 0
-236 232 0
-236 -132 0
233 -232 -234 0
-233 232 0
-233 234 0
517 -233 196 0
-517 233 0
-517 -196 0
518 -130 -133 -232 0
-518 130 0
-518 133 0
-518 232 0
519 -232 130 133 0
-519 232 0
-519 -130 0
-519 -133 0
520 -237 -131 -134 -232 0
-520 237 0
-520 131 0
-520 134 0
-520 232 0
521 -237 -232 131 134 0
-521 237 0
-521 232 0
-521 -131 0
-521 -134 0
239 -133 -232 130 0
-239 133 0
-239 232 0
-239 -130 0
522 -237 -134 -232 131 0
-522 237 0
-522 134 0
-522 232 0
-522 -131 0
523 -239 -131 -232 134 0
-523 239 0
-523 131 0
-523 232 0
-523 -134 0
524 -238 -135 -232 132 0
-524 238 0
-524 135 0
-524 232 0
-524 -132 0
525 -240 -132 -232 135 0
-525 240 0
-525 132 0
-525 232 0
-525 -135 0
-233 241 0
526 -232 -241 0
-526 232 0
-526 241 0
242 -32 -66 0
-242 32 0
-242 66 0
527 -242 0
-527 242 0
528 -133 -242 127 0
-528 133 0
-528 242 0
-528 -127 0
529 -245 -242 127 133 0
-529 245 0
-529 242 0
-529 -127 0
-529 -133 0
530 -245 -127 -133 -242 0
-530 245 0
-530 127 0
-530 133 0
-530 242 0
531 -134 -242 128 0
-531 134 0
-531 242 0
-531 -128 0
532 -246 -242 128 134 0
-532 246 0
-532 242 0
-532 -128 0
-532 -134 0
533 -246 -128 -134 -242 0
-533 246 0
-533 128 0
-533 134 0
-533 242 0
246 -135 -242 129 0
-246 135 0
-246 242 0
-246 -129 0
243 -242 -244 0
-243 242 0
-243 244 0
534 -243 196 0
-534 243 0
-534 -196 0
535 -127 -133 -242 0
-535 127 0
-535 133 0
-535 242 0
536 -242 127 133 0
-536 242 0
-536 -127 0
-536 -133 0
537 -247 -128 -134 -242 0
-537 247 0
-537 128 0
-537 134 0
-537 242 0
538 -247 -242 128 134 0
-538 247 0
-538 242 0
-538 -128 0
-538 -134 0
249 -133 -242 127 0
-249 133 0
-249 242 0
-249 -127 0
539 -247 -134 -242 128 0
-539 247 0
-539 134 0
-539 242 0
-539 -128 0
540 -249 -128 -242 134 0
-540 249 0
-540 128 0
-540 242 0
-540 -134 0
541 -248 -135 -242 129 0
-541 248 0
-541 135 0
-541 242 0
-541 -129 0
542 -250 -129 -242 135 0
-542 250 0
-542 129 0
-542 242 0
-542 -135 0
-243 251 0
543 -242 -251 0
-543 242 0
-543 251 0
-199 200 0
-36 199 196 0
37 101 0
-37 -101 0
254 -136 0
-254 136 0
-136 -38 -253 0
-136 38 0
-137 -38 -253 0
-137 38 0
-138 -38 -253 0
-138 38 0
258 -37 0
-258 37 0
544 -258 0
-544 258 0
253 -258 0
-253 258 0
259 -40 -57 0
-259 40 0
-259 57 0
545 -259 0
-545 259 0
546 -136 -259 139 0
-546 136 0
-546 259 0
-546 -139 0
547 -262 -259 139 136 0
-547 262 0
-547 259 0
-547 -139 0
-547 -136 0
548 -262 -139 -136 -259 0
-548 262 0
-548 139 0
-548 136 0
-548 259 0
549 -137 -259 140 0
-549 137 0
-549 259 0
-549 -140 0
550 -263 -259 140 137 0
-550 263 0
-550 259 0
-550 -140 0
-550 -137 0
551 -263 -140 -137 -259 0
-551 263 0
-551 140 0
-551 137 0
-551 259 0
263 -138 -259 141 0
-263 138 0
-263 259 0
-263 -141 0
260 -259 -261 0
-260 259 0
-260 261 0
552 -260 253 0
-552 260 0
-552 -253 0
553 -139 -136 -259 0
-553 139 0
-553 136 0
-553 259 0
554 -259 139 136 0
-554 259 0
-554 -139 0
-554 -136 0
555 -264 -140 -137 -259 0
-555 264 0
-555 140 0
-555 137 0
-555 259 0
556 -264 -259 140 137 0
-556 264 0
-556 259 0
-556 -140 0
-556 -137 0
266 -136 -259 139 0
-266 136 0
-266 259 0
-266 -139 0
557 -264 -137 -259 140 0
-557 264 0
-557 137 0
-557 259 0
-557 -140 0
558 -266 -140 -259 137 0
-558 266 0
-558 140 0
-558 259 0
-558 -137 0
559 -265 -138 -259 141 0
-559 265 0
-559 138 0
-559 259 0
-559 -141 0
560 -267 -141 -259 138 0
-560 267 0
-560 141 0
-560 259 0
-560 -138 0
-260 268 0
561 -259 -268 0
-561 259 0
-561 268 0
269 -36 -59 0
-269 36 0
-269 59 0
562 -269 0
-562 269 0
563 -136 -269 133 0
-563 136 0
-563 269 0
-563 -133 0
564 -272 -269 133 136 0
-564 272 0
-564 269 0
-564 -133 0
-564 -136 0
565 -272 -133 -136 -269 0
-565 272 0
-565 133 0
-565 136 0
-565 269 0
566 -137 -269 134 0
-566 137 0
-566 269 0
-566 -134 0
567 -273 -269 134 137 0
-567 273 0
-567 269 0
-567 -134 0
-567 -137 0
568 -273 -134 -137 -269 0
-568 273 0
-568 134 0
-568 137 0
-568 269 0
273 -138 -269 135 0
-273 138 0
-273 269 0
-273 -135 0
270 -269 -271 0
-270 269 0
-270 271 0
569 -270 253 0
-569 270 0
-569 -253 0
570 -133 -136 -269 0
-570 133 0
-570 136 0
-570 269 0
571 -269 133 136 0
-571 269 0
-571 -133 0
-571 -136 0
572 -274 -134 -137 -269 0
-572 274 0
-572 134 0
-572 137 0
-572 269 0
573 -274 -269 134 137 0
-573 274 0
-573 269 0
-573 -134 0
-573 -137 0
276 -136 -269 133 0
-276 136 0
-276 269 0
-276 -133 0
574 -274 -137 -269 134 0
-574 274 0
-574 137 0
-574 269 0
-574 -134 0
575 -276 -134 -269 137 0
-575 276 0
-575 134 0
-575 269 0
-575 -137 0
576 -275 -138 -269 135 0
-576 275 0
-576 138 0
-576 269 0
-576 -135 0
577 -277 -135 -269 138 0
-577 277 0
-577 135 0
-577 269 0
-577 -138 0
-270 278 0
578 -269 -278 0
-578 269 0
-578 278 0
-256 257 0
-38 256 253 0
39 102 0
-39 -102 0
281 -139 0
-281 139 0
-139 -40 -280 0
-139 40 0
-140 -40 -280 0
-140 40 0
-141 -40 -280 0
-141 40 0
285 -39 0
-285 39 0
579 -285 0
-579 285 0
280 -285 0
-280 285 0
286 -32 -48 0
-286 32 0
-286 48 0
580 -286 0
-580 286 0
581 -139 -286 127 0
-581 139 0
-581 286 0
-581 -127 0
582 -289 -286 127 139 0
-582 289 0
-582 286 0
-582 -127 0
-582 -139 0
583 -289 -127 -139 -286 0
-583 289 0
-583 127 0
-583 139 0
-583 286 0
584 -140 -286 128 0
-584 140 0
-584 286 0
-584 -128 0
585 -290 -286 128 140 0
-585 290 0
-585 286 0
-585 -128 0
-585 -140 0
586 -290 -128 -140 -286 0
-586 290 0
-586 128 0
-586 140 0
-586 286 0
290 -141 -286 129 0
-290 141 0
-290 286 0
-290 -129 0
287 -286 -288 0
-287 286 0
-287 288 0
587 -287 280 0
-587 287 0
-587 -280 0
588 -127 -139 -286 0
-588 127 0
-588 139 0
-588 286 0
589 -286 127 139 0
-589 286 0
-589 -127 0
-589 -139 0
590 -291 -128 -140 -286 0
-590 291 0
-590 128 0
-590 140 0
-590 286 0
591 -291 -286 128 140 0
-591 291 0
-591 286 0
-591 -128 0
-591 -140 0
293 -139 -286 127 0
-293 139 0
-293 286 0
-293 -127 0
592 -291 -140 -286 128 0
-592 291 0
-592 140 0
-592 286 0
-592 -128 0
593 -293 -128 -286 140 0
-593 293 0
-593 128 0
-593 286 0
-593 -140 0
594 -292 -141 -286 129 0
-594 292 0
-594 141 0
-594 286 0
-594 -129 0
595 -294 -129 -286 141 0
-595 294 0
-595 129 0
-595 286 0
-595 -141 0
-287 295 0
596 -286 -295 0
-596 286 0
-596 295 0
296 -44 -46 0
-296 44 0
-296 46 0
597 -296 0
-597 296 0
598 -139 -296 145 0
-598 139 0
-598 296 0
-598 -145 0
599 -299 -296 145 139 0
-599 299 0
-599 296 0
-599 -145 0
-599 -139 0
600 -299 -145 -139 -296 0
-600 299 0
-600 145 0
-600 139 0
-600 296 0
601 -140 -296 146 0
-601 140 0
-601 296 0
-601 -146 0
602 -300 -296 146 140 0
-602 300 0
-602 296 0
-602 -146 0
-602 -140 0
603 -300 -146 -140 -296 0
-603 300 0
-603 146 0
-603 140 0
-603 296 0
300 -141 -296 147 0
-300 141 0
-300 296 0
-300 -147 0
297 -296 -298 0
-297 296 0
-297 298 0
604 -297 280 0
-604 297 0
-604 -280 0
605 -145 -139 -296 0
-605 145 0
-605 139 0
-605 296 0
606 -296 145 139 0
-606 296 0
-606 -145 0
-606 -139 0
607 -301 -146 -140 -296 0
-607 301 0
-607 146 0
-607 140 0
-607 296 0
608 -301 -296 146 140 0
-608 301 0
-608 296 0
-608 -146 0
-608 -140 0
303 -139 -296 145 0
-303 139 0
-303 296 0
-303 -145 0
609 -301 -140 -296 146 0
-609 301 0
-609 140 0
-609 296 0
-609 -146 0
610 -303 -146 -296 140 0
-610 303 0
-610 146 0
-610 296 0
-610 -140 0
611 -302 -141 -296 147 0
-611 302 0
-611 141 0
-611 296 0
-611 -147 0
612 -304 -147 -296 141 0
-612 304 0
-612 147 0
-612 296 0
-612 -141 0
-297 305 0
613 -296 -305 0
-613 296 0
-613 305 0
306 -42 -50 0
-306 42 0
-306 50 0
614 -306 0
-614 306 0
615 -139 -306 142 0
-615 139 0
-615 306 0
-615 -142 0
616 -309 -306 142 139 0
-616 309 0
-616 306 0
-616 -142 0
-616 -139 0
617 -309 -142 -139 -306 0
-617 309 0
-617 142 0
-617 139 0
-617 306 0
618 -140 -306 143 0
-618 140 0
-618 306 0
-618 -143 0
619 -310 -306 143 140 0
-619 310 0
-619 306 0
-619 -143 0
-619 -140 0
620 -310 -143 -140 -306 0
-620 310 0
-620 143 0
-620 140 0
-620 306 0
310 -141 -306 144 0
-310 141 0
-310 306 0
-310 -144 0
307 -306 -308 0
-307 306 0
-307 308 0
621 -307 280 0
-621 307 0
-621 -280 0
622 -142 -139 -306 0
-622 142 0
-622 139 0
-622 306 0
623 -306 142 139 0
-623 306 0
-623 -142 0
-623 -139 0
624 -311 -143 -140 -306 0
-624 311 0
-624 143 0
-624 140 0
-624 306 0
625 -311 -306 143 140 0
-625 311 0
-625 306 0
-625 -143 0
-625 -140 0
313 -139 -306 142 0
-313 139 0
-313 306 0
-313 -142 0
626 -311 -140 -306 143 0
-626 311 0
-626 140 0
-626 306 0
-626 -143 0
627 -313 -143 -306 140 0
-627 313 0
-627 143 0
-627 306 0
-627 -140 0
628 -312 -141 -306 144 0
-628 312 0
-628 141 0
-628 306 0
-628 -144 0
629 -314 -144 -306 141 0
-629 314 0
-629 144 0
-629 306 0
-629 -141 0
-307 315 0
630 -306 -315 0
-630 306 0
-630 315 0
316 -55 -56 0
-316 55 0
-316 56 0
631 -316 0
-631 316 0
632 -139 -316 148 0
-632 139 0
-632 316 0
-632 -148 0
633 -319 -316 148 139 0
-633 319 0
-633 316 0
-633 -148 0
-633 -139 0
634 -319 -148 -139 -316 0
-634 319 0
-634 148 0
-634 139 0
-634 316 0
635 -140 -316 149 0
-635 140 0
-635 316 0
-635 -149 0
636 -320 -316 149 140 0
-636 320 0
-636 316 0
-636 -149 0
-636 -140 0
637 -320 -149 -140 -316 0
-637 320 0
-637 149 0
-637 140 0
-637 316 0
320 -141 -316 150 0
-320 141 0
-320 316 0
-320 -150 0
317 -316 -318 0
-317 316 0
-317 318 0
638 -317 280 0
-638 317 0
-638 -280 0
639 -148 -139 -316 0
-639 148 0
-639 139 0
-639 316 0
640 -316 148 139 0
-640 316 0
-640 -148 0
-640 -139 0
641 -321 -149 -140 -316 0
-641 321 0
-641 149 0
-641 140 0
-641 316 0
642 -321 -316 149 140 0
-642 321 0
-642 316 0
-642 -149 0
-642 -140 0
323 -139 -316 148 0
-323 139 0
-323 316 0
-323 -148 0
643 -321 -140 -316 149 0
-643 321 0
-643 140 0
-643 316 0
-643 -149 0
644 -323 -149 -316 140 0
-644 323 0
-644 149 0
-644 316 0
-644 -140 0
645 -322 -141 -316 150 0
-645 322 0
-645 141 0
-645 316 0
-645 -150 0
646 -324 -150 -316 141 0
-646 324 0
-646 150 0
-646 316 0
-646 -141 0
-317 325 0
647 -316 -325 0
-647 316 0
-647 325 0
326 -38 -60 0
-326 38 0
-326 60 0
648 -326 0
-648 326 0
649 -139 -326 136 0
-649 139 0
-649 326 0
-649 -136 0
650 -329 -326 136 139 0
-650 329 0
-650 326 0
-650 -136 0
-650 -139 0
651 -329 -136 -139 -326 0
-651 329 0
-651 136 0
-651 139 0
-651 326 0
652 -140 -326 137 0
-652 140 0
-652 326 0
-652 -137 0
653 -330 -326 137 140 0
-653 330 0
-653 326 0
-653 -137 0
-653 -140 0
654 -330 -137 -140 -326 0
-654 330 0
-654 137 0
-654 140 0
-654 326 0
330 -141 -326 138 0
-330 141 0
-330 326 0
-330 -138 0
327 -326 -328 0
-327 326 0
-327 328 0
655 -327 280 0
-655 327 0
-655 -280 0
656 -136 -139 -326 0
-656 136 0
-656 139 0
-656 326 0
657 -326 136 139 0
-657 326 0
-657 -136 0
-657 -139 0
658 -331 -137 -140 -326 0
-658 331 0
-658 137 0
-658 140 0
-658 326 0
659 -331 -326 137 140 0
-659 331 0
-659 326 0
-659 -137 0
-659 -140 0
333 -139 -326 136 0
-333 139 0
-333 326 0
-333 -136 0
660 -331 -140 -326 137 0
-660 331 0
-660 140 0
-660 326 0
-660 -137 0
661 -333 -137 -326 140 0
-661 333 0
-661 137 0
-661 326 0
-661 -140 0
662 -332 -141 -326 138 0
-662 332 0
-662 141 0
-662 326 0
-662 -138 0
663 -334 -138 -326 141 0
-663 334 0
-663 138 0
-663 326 0
-663 -141 0
-327 335 0
664 -326 -335 0
-664 326 0
-664 335 0
-283 284 0
-40 283 280 0
41 103 0
-41 -103 0
338 -142 0
-338 142 0
-142 -42 -337 0
-142 42 0
-143 -42 -337 0
-143 42 0
-144 -42 -337 0
-144 42 0
342 -41 0
-342 41 0
665 -342 0
-665 342 0
337 -342 0
-337 342 0
343 -40 -49 0
-343 40 0
-343 49 0
666 -343 0
-666 343 0
667 -142 -343 139 0
-667 142 0
-667 343 0
-667 -139 0
668 -346 -343 139 142 0
-668 346 0
-668 343 0
-668 -139 0
-668 -142 0
669 -346 -139 -142 -343 0
-669 346 0
-669 139 0
-669 142 0
-669 343 0
670 -143 -343 140 0
-670 143 0
-670 343 0
-670 -140 0
671 -347 -343 140 143 0
-671 347 0
-671 343 0
-671 -140 0
-671 -143 0
672 -347 -140 -143 -343 0
-672 347 0
-672 140 0
-672 143 0
-672 343 0
347 -144 -343 141 0
-347 144 0
-347 343 0
-347 -141 0
344 -343 -345 0
-344 343 0
-344 345 0
340 -344 337 0
-340 344 0
-340 -337 0
673 -139 -142 -343 0
-673 139 0
-673 142 0
-673 343 0
674 -343 139 142 0
-674 343 0
-674 -139 0
-674 -142 0
675 -348 -140 -143 -343 0
-675 348 0
-675 140 0
-675 143 0
-675 343 0
676 -348 -343 140 143 0
-676 348 0
-676 343 0
-676 -140 0
-676 -143 0
350 -142 -343 139 0
-350 142 0
-350 343 0
-350 -139 0
677 -348 -143 -343 140 0
-677 348 0
-677 143 0
-677 343 0
-677 -140 0
678 -350 -140 -343 143 0
-678 350 0
-678 140 0
-678 343 0
-678 -143 0
679 -349 -144 -343 141 0
-679 349 0
-679 144 0
-679 343 0
-679 -141 0
680 -351 -141 -343 144 0
-680 351 0
-680 141 0
-680 343 0
-680 -144 0
-344 352 0
341 -343 -352 0
-341 343 0
-341 352 0
-340 341 0
-42 340 337 0
43 104 0
-43 -104 0
355 -145 0
-355 145 0
-145 -44 -354 0
-145 44 0
-146 -44 -354 0
-146 44 0
-147 -44 -354 0
-147 44 0
359 -43 0
-359 43 0
681 -359 0
-681 359 0
354 -359 0
-354 359 0
360 -36 -45 0
-360 36 0
-360 45 0
682 -360 0
-682 360 0
683 -145 -360 133 0
-683 145 0
-683 360 0
-683 -133 0
684 -363 -360 133 145 0
-684 363 0
-684 360 0
-684 -133 0
-684 -145 0
685 -363 -133 -145 -360 0
-685 363 0
-685 133 0
-685 145 0
-685 360 0
686 -146 -360 134 0
-686 146 0
-686 360 0
-686 -134 0
687 -364 -360 134 146 0
-687 364 0
-687 360 0
-687 -134 0
-687 -146 0
688 -364 -134 -146 -360 0
-688 364 0
-688 134 0
-688 146 0
-688 360 0
364 -147 -360 135 0
-364 147 0
-364 360 0
-364 -135 0
361 -360 -362 0
-361 360 0
-361 362 0
689 -361 354 0
-689 361 0
-689 -354 0
690 -133 -145 -360 0
-690 133 0
-690 145 0
-690 360 0
691 -360 133 145 0
-691 360 0
-691 -133 0
-691 -145 0
692 -365 -134 -146 -360 0
-692 365 0
-692 134 0
-692 146 0
-692 360 0
693 -365 -360 134 146 0
-693 365 0
-693 360 0
-693 -134 0
-693 -146 0
367 -145 -360 133 0
-367 145 0
-367 360 0
-367 -133 0
694 -365 -146 -360 134 0
-694 365 0
-694 146 0
-694 360 0
-694 -134 0
695 -367 -134 -360 146 0
-695 367 0
-695 134 0
-695 360 0
-695 -146 0
696 -366 -147 -360 135 0
-696 366 0
-696 147 0
-696 360 0
-696 -135 0
697 -368 -135 -360 147 0
-697 368 0
-697 135 0
-697 360 0
-697 -147 0
-361 369 0
698 -360 -369 0
-698 360 0
-698 369 0
370 -40 -51 0
-370 40 0
-370 51 0
699 -370 0
-699 370 0
700 -145 -370 139 0
-700 145 0
-700 370 0
-700 -139 0
701 -373 -370 139 145 0
-701 373 0
-701 370 0
-701 -139 0
-701 -145 0
702 -373 -139 -145 -370 0
-702 373 0
-702 139 0
-702 145 0
-702 370 0
703 -146 -370 140 0
-703 146 0
-703 370 0
-703 -140 0
704 -374 -370 140 146 0
-704 374 0
-704 370 0
-704 -140 0
-704 -146 0
705 -374 -140 -146 -370 0
-705 374 0
-705 140 0
-705 146 0
-705 370 0
374 -147 -370 141 0
-374 147 0
-374 370 0
-374 -141 0
371 -370 -372 0
-371 370 0
-371 372 0
706 -371 354 0
-706 371 0
-706 -354 0
707 -139 -145 -370 0
-707 139 0
-707 145 0
-707 370 0
708 -370 139 145 0
-708 370 0
-708 -139 0
-708 -145 0
709 -375 -140 -146 -370 0
-709 375 0
-709 140 0
-709 146 0
-709 370 0
710 -375 -370 140 146 0
-710 375 0
-710 370 0
-710 -140 0
-710 -146 0
377 -145 -370 139 0
-377 145 0
-377 370 0
-377 -139 0
711 -375 -146 -370 140 0
-711 375 0
-711 146 0
-711 370 0
-711 -140 0
712 -377 -140 -370 146 0
-712 377 0
-712 140 0
-712 370 0
-712 -146 0
713 -376 -147 -370 141 0
-713 376 0
-713 147 0
-713 370 0
-713 -141 0
714 -378 -141 -370 147 0
-714 378 0
-714 141 0
-714 370 0
-714 -147 0
-371 379 0
715 -370 -379 0
-715 370 0
-715 379 0
-357 358 0
-44 357 354 0
45 105 0
-45 -105 0
46 106 0
-46 -106 0
47 107 0
-47 -107 0
48 108 0
-48 -108 0
49 109 0
-49 -109 0
50 110 0
-50 -110 0
51 111 0
-51 -111 0
52 112 0
-52 -112 0
53 113 0
-53 -113 0
54 114 0
-54 -114 0
382 -148 0
-382 148 0
-148 -55 -381 0
-148 55 0
-149 -55 -381 0
-149 55 0
-150 -55 -381 0
-150 55 0
386 -54 0
-386 54 0
716 -386 0
-716 386 0
381 -386 0
-381 386 0
387 -36 -53 0
-387 36 0
-387 53 0
717 -387 0
-717 387 0
718 -148 -387 133 0
-718 148 0
-718 387 0
-718 -133 0
719 -390 -387 133 148 0
-719 390 0
-719 387 0
-719 -133 0
-719 -148 0
720 -390 -133 -148 -387 0
-720 390 0
-720 133 0
-720 148 0
-720 387 0
721 -149 -387 134 0
-721 149 0
-721 387 0
-721 -134 0
722 -391 -387 134 149 0
-722 391 0
-722 387 0
-722 -134 0
-722 -149 0
723 -391 -134 -149 -387 0
-723 391 0
-723 134 0
-723 149 0
-723 387 0
391 -150 -387 135 0
-391 150 0
-391 387 0
-391 -135 0
388 -387 -389 0
-388 387 0
-388 389 0
724 -388 381 0
-724 388 0
-724 -381 0
725 -133 -148 -387 0
-725 133 0
-725 148 0
-725 387 0
726 -387 133 148 0
-726 387 0
-726 -133 0
-726 -148 0
727 -392 -134 -149 -387 0
-727 392 0
-727 134 0
-727 149 0
-727 387 0
728 -392 -387 134 149 0
-728 392 0
-728 387 0
-728 -134 0
-728 -149 0
394 -148 -387 133 0
-394 148 0
-394 387 0
-394 -133 0
729 -392 -149 -387 134 0
-729 392 0
-729 149 0
-729 387 0
-729 -134 0
730 -394 -134 -387 149 0
-730 394 0
-730 134 0
-730 387 0
-730 -149 0
731 -393 -150 -387 135 0
-731 393 0
-731 150 0
-731 387 0
-731 -135 0
732 -395 -135 -387 150 0
-732 395 0
-732 135 0
-732 387 0
-732 -150 0
-388 396 0
733 -387 -396 0
-733 387 0
-733 396 0
397 -40 -61 0
-397 40 0
-397 61 0
734 -397 0
-734 397 0
735 -148 -397 139 0
-735 148 0
-735 397 0
-735 -139 0
736 -400 -397 139 148 0
-736 400 0
-736 397 0
-736 -139 0
-736 -148 0
737 -400 -139 -148 -397 0
-737 400 0
-737 139 0
-737 148 0
-737 397 0
738 -149 -397 140 0
-738 149 0
-738 397 0
-738 -140 0
739 -401 -397 140 149 0
-739 401 0
-739 397 0
-739 -140 0
-739 -149 0
740 -401 -140 -149 -397 0
-740 401 0
-740 140 0
-740 149 0
-740 397 0
401 -150 -397 141 0
-401 150 0
-401 397 0
-401 -141 0
398 -397 -399 0
-398 397 0
-398 399 0
741 -398 381 0
-741 398 0
-741 -381 0
742 -139 -148 -397 0
-742 139 0
-742 148 0
-742 397 0
743 -397 139 148 0
-743 397 0
-743 -139 0
-743 -148 0
744 -402 -140 -149 -397 0
-744 402 0
-744 140 0
-744 149 0
-744 397 0
745 -402 -397 140 149 0
-745 402 0
-745 397 0
-745 -140 0
-745 -149 0
404 -148 -397 139 0
-404 148 0
-404 397 0
-404 -139 0
746 -402 -149 -397 140 0
-746 402 0
-746 149 0
-746 397 0
-746 -140 0
747 -404 -140 -397 149 0
-747 404 0
-747 140 0
-747 397 0
-747 -149 0
748 -403 -150 -397 141 0
-748 403 0
-748 150 0
-748 397 0
-748 -141 0
749 -405 -141 -397 150 0
-749 405 0
-749 141 0
-749 397 0
-749 -150 0
-398 406 0
750 -397 -406 0
-750 397 0
-750 406 0
-384 385 0
-55 384 381 0
56 115 0
-56 -115 0
57 116 0
-57 -116 0
58 117 0
-58 -117 0
59 118 0
-59 -118 0
60 119 0
-60 -119 0
61 120 0
-61 -120 0
62 121 0
-62 -121 0
63 122 0
-63 -122 0
64 123 0
-64 -123 0
65 124 0
-65 -124 0
66 125 0
-66 -125 0
67 126 0
-67 -126 0
68 -67 0
-68 67 0
69 0
70 0
71 0
72 0
73 0
74 0
75 0
76 0
77 0
78 0
79 0
80 0
81 0
82 0
83 0
84 0
85 0
86 0
87 0
88 0
89 0
90 0
91 0
92 0
93 0
94 0
95 0
96 0
97 0
98 31 0
-98 -31 0
99 33 0
-99 -33 0
100 35 0
-100 -35 0
101 37 0
-101 -37 0
102 39 0
-102 -39 0
103 41 0
-103 -41 0
104 43 0
-104 -43 0
105 45 0
-105 -45 0
106 46 0
-106 -46 0
107 47 0
-107 -47 0
108 48 0
-108 -48 0
109 49 0
-109 -49 0
110 50 0
-110 -50 0
111 51 0
-111 -51 0
112 52 0
-112 -52 0
113 53 0
-113 -53 0
114 54 0
-114 -54 0
115 56 0
-115 -56 0
116 57 0
-116 -57 0
117 58 0
-117 -58 0
118 59 0
-118 -59 0
119 60 0
-119 -60 0
120 61 0
-120 -61 0
121 62 0
-121 -62 0
122 63 0
-122 -63 0
123 64 0
-123 -64 0
124 65 0
-124 -65 0
125 66 0
-125 -66 0
126 67 0
-126 -67 0
-1 0
-1 0
-2 0
-3 0
-4 0
-5 0
-6 0
-7 0
-8 0
-9 0
-10 0
-11 0
-12 0
-13 0
-14 0
-15 0
-16 0
-17 0
-18 0
-19 0
-20 0
-21 0
-22 0
-23 0
-24 0
-25 0
-26 0
-27 0
-28 0
-29 0
-30 0
-32 407 408 425 0
32 -407 0
32 -408 0
32 -425 0
-34 442 443 0
34 -442 0
34 -443 0
-36 458 459 476 493 510 527 0
36 -458 0
36 -459 0
36 -476 0
36 -493 0
36 -510 0
36 -527 0
-38 544 545 562 0
38 -544 0
38 -545 0
38 -562 0
-40 579 580 597 614 631 648 0
40 -579 0
40 -580 0
40 -597 0
40 -614 0
40 -631 0
40 -648 0
-42 665 666 0
42 -665 0
42 -666 0
-44 681 682 699 0
44 -681 0
44 -682 0
44 -699 0
-55 716 717 734 0
55 -716 0
55 -717 0
55 -734 0
-151 0
-154 0
-155 415 432 0
155 -415 0
155 -432 0
-156 424 441 0
156 -424 0
156 -441 0
-160 409 410 411 0
160 -409 0
160 -410 0
160 -411 0
-161 412 413 414 0
161 -412 0
161 -413 0
161 -414 0
-163 416 417 0
163 -416 0
163 -417 0
-164 418 419 0
164 -418 0
164 -419 0
-166 420 421 0
166 -420 0
166 -421 0
-167 422 423 0
167 -422 0
167 -423 0
-170 426 427 428 0
170 -426 0
170 -427 0
170 -428 0
-171 429 430 431 0
171 -429 0
171 -430 0
171 -431 0
-173 433 434 0
173 -433 0
173 -434 0
-174 435 436 0
174 -435 0
174 -436 0
-176 437 438 0
176 -437 0
176 -438 0
-177 439 440 0
177 -439 0
177 -440 0
-178 0
-181 0
-187 444 445 446 0
187 -444 0
187 -445 0
187 -446 0
-188 447 448 449 0
188 -447 0
188 -448 0
188 -449 0
-190 450 451 0
190 -450 0
190 -451 0
-191 452 453 0
191 -452 0
191 -453 0
-193 454 455 0
193 -454 0
193 -455 0
-194 456 457 0
194 -456 0
194 -457 0
-195 0
-198 0
-199 466 483 500 517 534 0
199 -466 0
199 -483 0
199 -500 0
199 -517 0
199 -534 0
-200 475 492 509 526 543 0
200 -475 0
200 -492 0
200 -509 0
200 -526 0
200 -543 0
-204 460 461 462 0
204 -460 0
204 -461 0
204 -462 0
-205 463 464 465 0
205 -463 0
205 -464 0
205 -465 0
-207 467 468 0
207 -467 0
207 -468 0
-208 469 470 0
208 -469 0
208 -470 0
-210 471 472 0
210 -471 0
210 -472 0
-211 473 474 0
211 -473 0
211 -474 0
-214 477 478 479 0
214 -477 0
214 -478 0
214 -479 0
-215 480 481 482 0
215 -480 0
215 -481 0
215 -482 0
-217 484 485 0
217 -484 0
217 -485 0
-218 486 487 0
218 -486 0
218 -487 0
-220 488 489 0
220 -488 0
220 -489 0
-221 490 491 0
221 -490 0
221 -491 0
-224 494 495 496 0
224 -494 0
224 -495 0
224 -496 0
-225 497 498 499 0
225 -497 0
225 -498 0
225 -499 0
-227 501 502 0
227 -501 0
227 -502 0
-228 503 504 0
228 -503 0
228 -504 0
-230 505 506 0
230 -505 0
230 -506 0
-231 507 508 0
231 -507 0
231 -508 0
-234 511 512 513 0
234 -511 0
234 -512 0
234 -513 0
-235 514 515 516 0
235 -514 0
235 -515 0
235 -516 0
-237 518 519 0
237 -518 0
237 -519 0
-238 520 521 0
238 -520 0
238 -521 0
-240 522 523 0
240 -522 0
240 -523 0
-241 524 525 0
241 -524 0
241 -525 0
-244 528 529 530 0
244 -528 0
244 -529 0
244 -530 0
-245 531 532 533 0
245 -531 0
245 -532 0
245 -533 0
-247 535 536 0
247 -535 0
247 -536 0
-248 537 538 0
248 -537 0
248 -538 0
-250 539 540 0
250 -539 0
250 -540 0
-251 541 542 0
251 -541 0
251 -542 0
-252 0
-255 0
-256 552 569 0
256 -552 0
256 -569 0
-257 561 578 0
257 -561 0
257 -578 0
-261 546 547 548 0
261 -546 0
261 -547 0
261 -548 0
-262 549 550 551 0
262 -549 0
262 -550 0
262 -551 0
-264 553 554 0
264 -553 0
264 -554 0
-265 555 556 0
265 -555 0
265 -556 0
-267 557 558 0
267 -557 0
267 -558 0
-268 559 560 0
268 -559 0
268 -560 0
-271 563 564 565 0
271 -563 0
271 -564 0
271 -565 0
-272 566 567 568 0
272 -566 0
272 -567 0
272 -568 0
-274 570 571 0
274 -570 0
274 -571 0
-275 572 573 0
275 -572 0
275 -573 0
-277 574 575 0
277 -574 0
277 -575 0
-278 576 577 0
278 -576 0
278 -577 0
-279 0
-282 0
-283 587 604 621 638 655 0
283 -587 0
283 -604 0
283 -621 0
283 -638 0
283 -655 0
-284 596 613 630 647 664 0
284 -596 0
284 -613 0
284 -630 0
284 -647 0
284 -664 0
-288 581 582 583 0
288 -581 0
288 -582 0
288 -583 0
-289 584 585 586 0
289 -584 0
289 -585 0
289 -586 0
-291 588 589 0
291 -588 0
291 -589 0
-292 590 591 0
292 -590 0
292 -591 0
-294 592 593 0
294 -592 0
294 -593 0
-295 594 595 0
295 -594 0
295 -595 0
-298 598 599 600 0
298 -598 0
298 -599 0
298 -600 0
-299 601 602 603 0
299 -601 0
299 -602 0
299 -603 0
-301 605 606 0
301 -605 0
301 -606 0
-302 607 608 0
302 -607 0
302 -608 0
-304 609 610 0
304 -609 0
304 -610 0
-305 611 612 0
305 -611 0
305 -612 0
-308 615 616 617 0
308 -615 0
308 -616 0
308 -617 0
-309 618 619 620 0
309 -618 0
309 -619 0
309 -620 0
-311 622 623 0
311 -622 0
311 -623 0
-312 624 625 0
312 -624 0
312 -625 0
-314 626 627 0
314 -626 0
314 -627 0
-315 628 629 0
315 -628 0
315 -629 0
-318 632 633 634 0
318 -632 0
318 -633 0
318 -634 0
-319 635 636 637 0
319 -635 0
319 -636 0
319 -637 0
-321 639 640 0
321 -639 0
321 -640 0
-322 641 642 0
322 -641 0
322 -642 0
-324 643 644 0
324 -643 0
324 -644 0
-325 645 646 0
325 -645 0
325 -646 0
-328 649 650 651 0
328 -649 0
328 -650 0
328 -651 0
-329 652 653 654 0
329 -652 0
329 -653 0
329 -654 0
-331 656 657 0
331 -656 0
331 -657 0
-332 658 659 0
332 -658 0
332 -659 0
-334 660 661 0
334 -660 0
334 -661 0
-335 662 663 0
335 -662 0
335 -663 0
-336 0
-339 0
-345 667 668 669 0
345 -667 0
345 -668 0
345 -669 0
-346 670 671 672 0
346 -670 0
346 -671 0
346 -672 0
-348 673 674 0
348 -673 0
348 -674 0
-349 675 676 0
349 -675 0
349 -676 0
-351 677 678 0
351 -677 0
351 -678 0
-352 679 680 0
352 -679 0
352 -680 0
-353 0
-356 0
-357 689 706 0
357 -689 0
357 -706 0
-358 698 715 0
358 -698 0
358 -715 0
-362 683 684 685 0
362 -683 0
362 -684 0
362 -685 0
-363 686 687 688 0
363 -686 0
363 -687 0
363 -688 0
-365 690 691 0
365 -690 0
365 -691 0
-366 692 693 0
366 -692 0
366 -693 0
-368 694 695 0
368 -694 0
368 -695 0
-369 696 697 0
369 -696 0
369 -697 0
-372 700 701 702 0
372 -700 0
372 -701 0
372 -702 0
-373 703 704 705 0
373 -703 0
373 -704 0
373 -705 0
-375 707 708 0
375 -707 0
375 -708 0
-376 709 710 0
376 -709 0
376 -710 0
-378 711 712 0
378 -711 0
378 -712 0
-379 713 714 0
379 -713 0
379 -714 0
-380 0
-383 0
-384 724 741 0
384 -724 0
384 -741 0
-385 733 750 0
385 -733 0
385 -750 0
-389 718 719 720 0
389 -718 0
389 -719 0
389 -720 0
-390 721 722 723 0
390 -721 0
390 -722 0
390 -723 0
-392 725 726 0
392 -725 0
392 -726 0
-393 727 728 0
393 -727 0
393 -728 0
-395 729 730 0
395 -729 0
395 -730 0
-396 731 732 0
396 -731 0
396 -732 0
-399 735 736 737 0
399 -735 0
399 -736 0
399 -737 0
-400 738 739 740 0
400 -738 0
400 -739 0
400 -740 0
-402 742 743 0
402 -742 0
402 -743 0
-403 744 745 0
403 -744 0
403 -745 0
-405 746 747 0
405 -746 0
405 -747 0
-406 748 749 0
406 -748 0
406 -749 0
c p auxilliary 1 2 3 4 5 6 7 8 9 10 11 12 13 14 15 16 17 18 19 20 21 22 23 24 25 26 27 28 29 30 98 99 100 101 102 103 104 105 106 107 108 109 110 111 112 113 114 115 116 117 118 119 120 121 122 123 124 125 126 127 128 129 130 131 132 133 134 135 136 137 138 139 140 141 142 143 144 145 146 147 148 149 150 151 152 153 154 155 156 157 158 159 160 161 162 163 164 165 166 167 168 169 170 171 172 173 174 175 176 177 178 179 180 181 182 183 184 185 186 187 188 189 190 191 192 193 194 195 196 197 198 199 200 201 202 203 204 205 206 207 208 209 210 211 212 213 214 215 216 217 218 219 220 221 222 223 224 225 226 227 228 229 230 231 232 233 234 235 236 237 238 239 240 241 242 243 244 245 246 247 248 249 250 251 252 253 254 255 256 257 258 259 260 261 262 263 264 265 266 267 268 269 270 271 272 273 274 275 276 277 278 279 280 281 282 283 284 285 286 287 288 289 290 291 292 293 294 295 296 297 298 299 300 301 302 303 304 305 306 307 308 309 310 311 312 313 314 315 316 317 318 319 320 321 322 323 324 325 326 327 328 329 330 331 332 333 334 335 336 337 338 339 340 341 342 343 344 345 346 347 348 349 350 351 352 353 354 355 356 357 358 359 360 361 362 363 364 365 366 367 368 369 370 371 372 373 374 375 376 377 378 379 380 381 382 383 384 385 386 387 388 389 390 391 392 393 394 395 396 397 398 399 400 401 402 403 404 405 406 407 408 409 410 411 412 413 414 415 416 417 418 419 420 421 422 423 424 425 426 427 428 429 430 431 432 433 434 435 436 437 438 439 440 441 442 443 444 445 446 447 448 449 450 451 452 453 454 455 456 457 458 459 460 461 462 463 464 465 466 467 468 469 470 471 472 473 474 475 476 477 478 479 480 481 482 483 484 485 486 487 488 489 490 491 492 493 494 495 496 497 498 499 500 501 502 503 504 505 506 507 508 509 510 511 512 513 514 515 516 517 518 519 520 521 522 523 524 525 526 527 528 529 530 531 532 533 534 535 536 537 538 539 540 541 542 543 544 545 546 547 548 549 550 551 552 553 554 555 556 557 558 559 560 561 562 563 564 565 566 567 568 569 570 571 572 573 574 575 576 577 578 579 580 581 582 583 584 585 586 587 588 589 590 591 592 593 594 595 596 597 598 599 600 601 602 603 604 605 606 607 608 609 610 611 612 613 614 615 616 617 618 619 620 621 622 623 624 625 626 627 628 629 630 631 632 633 634 635 636 637 638 639 640 641 642 643 644 645 646 647 648 649 650 651 652 653 654 655 656 657 658 659 660 661 662 663 664 665 666 667 668 669 670 671 672 673 674 675 676 677 678 679 680 681 682 683 684 685 686 687 688 689 690 691 692 693 694 695 696 697 698 699 700 701 702 703 704 705 706 707 708 709 710 711 712 713 714 715 716 717 718 719 720 721 722 723 724 725 726 727 728 729 730 731 732 733 734 735 736 737 738 739 740 741 742 743 744 745 746 747 748 749 750 0
